
Gurobi 12.0.1 (win64, C++) logging started Thu Apr 17 14:20:00 2025

Set parameter Username
Set parameter LicenseID to value 2618661
Academic license - for non-commercial use only - expires 2026-02-05
Set parameter Threads to value 8
Set parameter LazyConstraints to value 1
Set parameter PreCrush to value 1
Set parameter Seed to value 10
Set parameter Cuts to value -1
Set parameter TimeLimit to value 28800
Set parameter NumericFocus to value 0
Set parameter SolutionLimit to value 10000
Gurobi Optimizer version 12.0.1 build v12.0.1rc0 (win64 - Windows Server 2022.0 (20348.2))

CPU model: AMD EPYC 7513 32-Core Processor, instruction set [SSE2|AVX|AVX2]
Thread count: 18 physical cores, 18 logical processors, using up to 8 threads

Non-default parameters:
SolutionLimit  10000
TimeLimit  28800
PreCrush  1
Seed  10
Threads  8
LazyConstraints  1

Optimize a model with 232 rows, 441 columns and 1260 nonzeros
Model fingerprint: 0x811ea46b
Variable types: 0 continuous, 441 integer (441 binary)
Coefficient statistics:
  Matrix range     [1e+00, 1e+00]
  Objective range  [6e+00, 6e+01]
  Bounds range     [1e+00, 1e+00]
  RHS range        [1e+00, 4e+00]

User MIP start produced solution with objective 414.143 (0.03s)
Loaded user MIP start with objective 414.143

Presolve removed 2 rows and 23 columns
Presolve time: 0.00s
Presolved: 230 rows, 418 columns, 1194 nonzeros
Variable types: 0 continuous, 418 integer (418 binary)

Root relaxation: objective 2.923362e+02, 67 iterations, 0.00 seconds (0.00 work units)

    Nodes    |    Current Node    |     Objective Bounds      |     Work
 Expl Unexpl |  Obj  Depth IntInf | Incumbent    BestBd   Gap | It/Node Time

     0     0  292.33623    0    -  414.14266  292.33623  29.4%     -    0s
     0     0  307.94455    0    -  414.14266  307.94455  25.6%     -    0s
     0     0  319.25762    0    -  414.14266  319.25762  22.9%     -    0s
     0     0  320.93098    0    -  414.14266  320.93098  22.5%     -    0s
     0     0  321.37940    0   32  414.14266  321.37940  22.4%     -    0s
     0     0  321.50629    0    -  414.14266  321.50629  22.4%     -    0s
     0     0  335.72328    0   12  414.14266  335.72328  18.9%     -    0s
     0     0  336.37370    0    -  414.14266  336.37370  18.8%     -    0s
     0     0  343.78790    0    -  414.14266  343.78790  17.0%     -    0s
     0     0  345.67746    0   30  414.14266  345.67746  16.5%     -    0s
     0     0  345.67746    0   43  414.14266  345.67746  16.5%     -    0s
     0     0  345.67746    0   39  414.14266  345.67746  16.5%     -    0s
     0     2  345.67746    0   30  414.14266  345.67746  16.5%     -    0s
   143   159  360.93956   16   34  414.14266  350.08163  15.5%  39.9    5s
   297   321  366.86955   34   58  414.14266  350.08163  15.5%  32.2   11s
H  446   443                     398.1326922  351.50648  11.7%  26.8   12s
  1133  1133  363.47650   15   41  398.13269  354.67105  10.9%  19.3   15s
  1555  1449  391.48462   94  454  398.13269  354.67105  10.9%  17.2   20s
  1695  1554  362.14906   21  445  398.13269  356.08968  10.6%  21.7   25s
  2038  1713  371.08509   36  316  398.13269  356.38720  10.5%  25.7   30s
* 2081  1643              43     390.3592952  356.38720  8.70%  26.3   31s
H 2082  1642                     387.1273839  356.38720  7.94%  26.3   34s
H 2156  1579                     383.8342021  356.42703  7.14%  26.8   34s
  2195  1568  361.30879   16  435  383.83420  356.42703  7.14%  27.2   35s
  2513  1601  376.04007   26  418  383.83420  358.68094  6.55%  27.8   40s
H 2734  1382                     373.0101195  359.32627  3.67%  28.0   43s
  2965  1295  363.03299   24  446  373.01012  360.24459  3.42%  28.8   45s
  4333   823     cutoff   32       373.01012  365.13147  2.11%  30.4   52s

Cutting planes:
  Gomory: 4
  Flow cover: 2
  Inf proof: 1
  Zero half: 4
  Relax-and-lift: 1
  Lazy constraints: 301

Explored 5706 nodes (171092 simplex iterations) in 54.02 seconds (16.20 work units)
Thread count was 8 (of 18 available processors)

Solution count 6: 373.01 383.834 387.127 ... 414.143

Optimal solution found (tolerance 1.00e-04)
Best objective 3.730101194861e+02, best bound 3.730101194861e+02, gap 0.0000%

User-callback calls 12374, time in user-callback 39.03 sec
### START EXACT APPROACH ###
ProblemVariant: 2
### START PREPROCESSING ###
## Start infeasible path procedure ## 
Deleted arcs: 2
Infeasible tail paths: 0
Infeasible 2-node combinations: 1
## Start extended infeasible path procedure ##
Deleted arcs: 2
Infeasible tail paths: 0
Infeasible 2-node combinations: 1
## Start start solution procedure ##
Start solution with 4 Vehicles and total costs 414.143 in 2.7073 s.
### END PREPROCESSING ###
Route 0 0-2-7-9-5-20-6-0 : weight util 1.000000 | volume util 0.535778 | feasible with packing heuristic | feasible with CP model
Route 1 0-4-3-8-0 : weight util 1.000000 | volume util 0.293911 | feasible with packing heuristic | feasible with CP model
Route 2 0-12-18-10-19-11-1-0 : weight util 0.976471 | volume util 0.667022 | infeasible with packing heuristic | feasible with CP model
Route 3 0-17-16-13-14-15-0 : weight util 0.894118 | volume util 0.744022 | infeasible with packing heuristic | feasible with CP model
